\ENCODING=ISO-8859-1
\Problem name: bSARP

Maximize
 obj: x(3,18,0) + x(3,18,1) + x(3,18,2) + x(3,18,3) + 9 x(3,23,0) + 9 x(3,23,1)
      + 9 x(3,23,2) + 9 x(3,23,3) - 4 x(3,24,0) - 4 x(3,24,1) - 4 x(3,24,2)
      - 4 x(3,24,3) + 2 x(3,40,0) + 2 x(3,40,1) + 2 x(3,40,2) + 2 x(3,40,3)
      + 6 x(10,24,0) + 6 x(10,24,1) + 6 x(10,24,2) + 6 x(10,24,3)
      + 11 x(10,40,0) + 11 x(10,40,1) + 11 x(10,40,2) + 11 x(10,40,3)
      + 3 x(13,40,0) + 3 x(13,40,1) + 3 x(13,40,2) + 3 x(13,40,3)
      + 3 x(14,40,0) + 3 x(14,40,1) + 3 x(14,40,2) + 3 x(14,40,3)
      - 4 x(21,24,0) - 4 x(21,24,1) - 4 x(21,24,2) - 4 x(21,24,3)
      + 2 x(21,40,0) + 2 x(21,40,1) + 2 x(21,40,2) + 2 x(21,40,3) + 8 x(23,0,0)
      + 8 x(23,0,1) + 8 x(23,0,2) + 8 x(23,0,3) + 9 x(23,40,0) + 9 x(23,40,1)
      + 9 x(23,40,2) + 9 x(23,40,3) - 2 x(36,6,0) - 2 x(36,6,1) - 2 x(36,6,2)
      - 2 x(36,6,3) - 5 x(37,12,0) - 5 x(37,12,1) - 5 x(37,12,2) - 5 x(37,12,3)
      - 4 x(37,30,0) - 4 x(37,30,1) - 4 x(37,30,2) - 4 x(37,30,3)
      - 2 x(38,24,0) - 2 x(38,24,1) - 2 x(38,24,2) - 2 x(38,24,3)
      - 2 x(39,24,0) - 2 x(39,24,1) - 2 x(39,24,2) - 2 x(39,24,3)
Subject To
 Constraint1_0:    x(0,40,0) + x(0,40,1) + x(0,40,2) + x(0,40,3) + x(3,18,0)
                   + x(3,18,1) + x(3,18,2) + x(3,18,3) + x(3,23,0) + x(3,23,1)
                   + x(3,23,2) + x(3,23,3) + x(3,24,0) + x(3,24,1) + x(3,24,2)
                   + x(3,24,3) + x(3,40,0) + x(3,40,1) + x(3,40,2) + x(3,40,3)
                    = 1
 Constraint1_1:    x(6,40,0) + x(6,40,1) + x(6,40,2) + x(6,40,3) + x(10,24,0)
                   + x(10,24,1) + x(10,24,2) + x(10,24,3) + x(10,40,0)
                   + x(10,40,1) + x(10,40,2) + x(10,40,3)  = 1
 Constraint1_2:    x(12,40,0) + x(12,40,1) + x(12,40,2) + x(12,40,3)
                   + x(13,40,0) + x(13,40,1) + x(13,40,2) + x(13,40,3)
                   + x(14,40,0) + x(14,40,1) + x(14,40,2) + x(14,40,3)  = 1
 Constraint1_3:    x(18,40,0) + x(18,40,1) + x(18,40,2) + x(18,40,3)
                   + x(21,24,0) + x(21,24,1) + x(21,24,2) + x(21,24,3)
                   + x(21,40,0) + x(21,40,1) + x(21,40,2) + x(21,40,3)
                   + x(23,0,0) + x(23,0,1) + x(23,0,2) + x(23,0,3) + x(23,40,0)
                   + x(23,40,1) + x(23,40,2) + x(23,40,3)  = 1
 Constraint1_4:    x(24,40,0) + x(24,40,1) + x(24,40,2) + x(24,40,3)  = 1
 Constraint1_5:    x(30,40,0) + x(30,40,1) + x(30,40,2) + x(30,40,3)  = 1
 Constraint2_0:    x(23,0,0) + x(23,0,1) + x(23,0,2) + x(23,0,3)  = 1
 Constraint2_1:    x(36,6,0) + x(36,6,1) + x(36,6,2) + x(36,6,3)  = 1
 Constraint2_2:    x(37,12,0) + x(37,12,1) + x(37,12,2) + x(37,12,3)  = 1
 Constraint2_3:    x(3,18,0) + x(3,18,1) + x(3,18,2) + x(3,18,3) + x(3,23,0)
                   + x(3,23,1) + x(3,23,2) + x(3,23,3)  = 1
 Constraint2_4:    x(3,24,0) + x(3,24,1) + x(3,24,2) + x(3,24,3) + x(10,24,0)
                   + x(10,24,1) + x(10,24,2) + x(10,24,3) + x(21,24,0)
                   + x(21,24,1) + x(21,24,2) + x(21,24,3) + x(38,24,0)
                   + x(38,24,1) + x(38,24,2) + x(38,24,3) + x(39,24,0)
                   + x(39,24,1) + x(39,24,2) + x(39,24,3)  = 1
 Constraint2_5:    x(37,30,0) + x(37,30,1) + x(37,30,2) + x(37,30,3)  = 1
 Constraint3_0:    x(36,6,0)  = 1
 Constraint3_1:    x(37,12,1) + x(37,30,1)  = 1
 Constraint3_2:    x(38,24,2)  = 1
 Constraint3_3:    x(39,24,3)  = 1
 Constraint4_0:    x(0,40,0) + x(3,40,0) + x(6,40,0) + x(10,40,0) + x(12,40,0)
                   + x(13,40,0) + x(14,40,0) + x(18,40,0) + x(21,40,0)
                   + x(23,40,0) + x(24,40,0) + x(30,40,0)  = 1
 Constraint4_1:    x(0,40,1) + x(3,40,1) + x(6,40,1) + x(10,40,1) + x(12,40,1)
                   + x(13,40,1) + x(14,40,1) + x(18,40,1) + x(21,40,1)
                   + x(23,40,1) + x(24,40,1) + x(30,40,1)  = 1
 Constraint4_2:    x(0,40,2) + x(3,40,2) + x(6,40,2) + x(10,40,2) + x(12,40,2)
                   + x(13,40,2) + x(14,40,2) + x(18,40,2) + x(21,40,2)
                   + x(23,40,2) + x(24,40,2) + x(30,40,2)  = 1
 Constraint4_3:    x(0,40,3) + x(3,40,3) + x(6,40,3) + x(10,40,3) + x(12,40,3)
                   + x(13,40,3) + x(14,40,3) + x(18,40,3) + x(21,40,3)
                   + x(23,40,3) + x(24,40,3) + x(30,40,3)  = 1
 Constraint5_6:    x(13,40,0) + x(13,40,1) + x(13,40,2) + x(13,40,3) <= 1
 Constraint5_7:    x(14,40,0) + x(14,40,1) + x(14,40,2) + x(14,40,3) <= 1
 Constraint5_8:    x(3,18,0) + x(3,18,1) + x(3,18,2) + x(3,18,3) + x(3,23,0)
                   + x(3,23,1) + x(3,23,2) + x(3,23,3) + x(3,24,0) + x(3,24,1)
                   + x(3,24,2) + x(3,24,3) + x(3,40,0) + x(3,40,1) + x(3,40,2)
                   + x(3,40,3) + x(21,24,0) + x(21,24,1) + x(21,24,2)
                   + x(21,24,3) + x(21,40,0) + x(21,40,1) + x(21,40,2)
                   + x(21,40,3) <= 1
 Constraint5_9:    x(10,24,0) + x(10,24,1) + x(10,24,2) + x(10,24,3)
                   + x(10,40,0) + x(10,40,1) + x(10,40,2) + x(10,40,3) <= 1
 Constraint5_10:   x(23,0,0) + x(23,0,1) + x(23,0,2) + x(23,0,3) + x(23,40,0)
                   + x(23,40,1) + x(23,40,2) + x(23,40,3) <= 1
 Constraint6_0_0:  x(0,40,0) - x(23,0,0)  = 0
 Constraint6_0_1:  x(0,40,1) - x(23,0,1)  = 0
 Constraint6_0_2:  x(0,40,2) - x(23,0,2)  = 0
 Constraint6_0_3:  x(0,40,3) - x(23,0,3)  = 0
 Constraint6_1_0:   = 0
 Constraint6_1_1:   = 0
 Constraint6_1_2:   = 0
 Constraint6_1_3:   = 0
 Constraint6_2_0:   = 0
 Constraint6_2_1:   = 0
 Constraint6_2_2:   = 0
 Constraint6_2_3:   = 0
 Constraint6_3_0:  x(3,18,0) + x(3,23,0) + x(3,24,0) + x(3,40,0)  = 0
 Constraint6_3_1:  x(3,18,1) + x(3,23,1) + x(3,24,1) + x(3,40,1)  = 0
 Constraint6_3_2:  x(3,18,2) + x(3,23,2) + x(3,24,2) + x(3,40,2)  = 0
 Constraint6_3_3:  x(3,18,3) + x(3,23,3) + x(3,24,3) + x(3,40,3)  = 0
 Constraint6_4_0:   = 0
 Constraint6_4_1:   = 0
 Constraint6_4_2:   = 0
 Constraint6_4_3:   = 0
 Constraint6_5_0:   = 0
 Constraint6_5_1:   = 0
 Constraint6_5_2:   = 0
 Constraint6_5_3:   = 0
 Constraint6_6_0:  x(6,40,0) - x(36,6,0)  = 0
 Constraint6_6_1:  x(6,40,1) - x(36,6,1)  = 0
 Constraint6_6_2:  x(6,40,2) - x(36,6,2)  = 0
 Constraint6_6_3:  x(6,40,3) - x(36,6,3)  = 0
 Constraint6_7_0:   = 0
 Constraint6_7_1:   = 0
 Constraint6_7_2:   = 0
 Constraint6_7_3:   = 0
 Constraint6_8_0:   = 0
 Constraint6_8_1:   = 0
 Constraint6_8_2:   = 0
 Constraint6_8_3:   = 0
 Constraint6_9_0:   = 0
 Constraint6_9_1:   = 0
 Constraint6_9_2:   = 0
 Constraint6_9_3:   = 0
 Constraint6_10_0: x(10,24,0) + x(10,40,0)  = 0
 Constraint6_10_1: x(10,24,1) + x(10,40,1)  = 0
 Constraint6_10_2: x(10,24,2) + x(10,40,2)  = 0
 Constraint6_10_3: x(10,24,3) + x(10,40,3)  = 0
 Constraint6_11_0:  = 0
 Constraint6_11_1:  = 0
 Constraint6_11_2:  = 0
 Constraint6_11_3:  = 0
 Constraint6_12_0: x(12,40,0) - x(37,12,0)  = 0
 Constraint6_12_1: x(12,40,1) - x(37,12,1)  = 0
 Constraint6_12_2: x(12,40,2) - x(37,12,2)  = 0
 Constraint6_12_3: x(12,40,3) - x(37,12,3)  = 0
 Constraint6_13_0: x(13,40,0)  = 0
 Constraint6_13_1: x(13,40,1)  = 0
 Constraint6_13_2: x(13,40,2)  = 0
 Constraint6_13_3: x(13,40,3)  = 0
 Constraint6_14_0: x(14,40,0)  = 0
 Constraint6_14_1: x(14,40,1)  = 0
 Constraint6_14_2: x(14,40,2)  = 0
 Constraint6_14_3: x(14,40,3)  = 0
 Constraint6_15_0:  = 0
 Constraint6_15_1:  = 0
 Constraint6_15_2:  = 0
 Constraint6_15_3:  = 0
 Constraint6_16_0:  = 0
 Constraint6_16_1:  = 0
 Constraint6_16_2:  = 0
 Constraint6_16_3:  = 0
 Constraint6_17_0:  = 0
 Constraint6_17_1:  = 0
 Constraint6_17_2:  = 0
 Constraint6_17_3:  = 0
 Constraint6_18_0: - x(3,18,0) + x(18,40,0)  = 0
 Constraint6_18_1: - x(3,18,1) + x(18,40,1)  = 0
 Constraint6_18_2: - x(3,18,2) + x(18,40,2)  = 0
 Constraint6_18_3: - x(3,18,3) + x(18,40,3)  = 0
 Constraint6_19_0:  = 0
 Constraint6_19_1:  = 0
 Constraint6_19_2:  = 0
 Constraint6_19_3:  = 0
 Constraint6_20_0:  = 0
 Constraint6_20_1:  = 0
 Constraint6_20_2:  = 0
 Constraint6_20_3:  = 0
 Constraint6_21_0: x(21,24,0) + x(21,40,0)  = 0
 Constraint6_21_1: x(21,24,1) + x(21,40,1)  = 0
 Constraint6_21_2: x(21,24,2) + x(21,40,2)  = 0
 Constraint6_21_3: x(21,24,3) + x(21,40,3)  = 0
 Constraint6_22_0:  = 0
 Constraint6_22_1:  = 0
 Constraint6_22_2:  = 0
 Constraint6_22_3:  = 0
 Constraint6_23_0: - x(3,23,0) + x(23,0,0) + x(23,40,0)  = 0
 Constraint6_23_1: - x(3,23,1) + x(23,0,1) + x(23,40,1)  = 0
 Constraint6_23_2: - x(3,23,2) + x(23,0,2) + x(23,40,2)  = 0
 Constraint6_23_3: - x(3,23,3) + x(23,0,3) + x(23,40,3)  = 0
 Constraint6_24_0: - x(3,24,0) - x(10,24,0) - x(21,24,0) + x(24,40,0)
                   - x(38,24,0) - x(39,24,0)  = 0
 Constraint6_24_1: - x(3,24,1) - x(10,24,1) - x(21,24,1) + x(24,40,1)
                   - x(38,24,1) - x(39,24,1)  = 0
 Constraint6_24_2: - x(3,24,2) - x(10,24,2) - x(21,24,2) + x(24,40,2)
                   - x(38,24,2) - x(39,24,2)  = 0
 Constraint6_24_3: - x(3,24,3) - x(10,24,3) - x(21,24,3) + x(24,40,3)
                   - x(38,24,3) - x(39,24,3)  = 0
 Constraint6_25_0:  = 0
 Constraint6_25_1:  = 0
 Constraint6_25_2:  = 0
 Constraint6_25_3:  = 0
 Constraint6_26_0:  = 0
 Constraint6_26_1:  = 0
 Constraint6_26_2:  = 0
 Constraint6_26_3:  = 0
 Constraint6_27_0:  = 0
 Constraint6_27_1:  = 0
 Constraint6_27_2:  = 0
 Constraint6_27_3:  = 0
 Constraint6_28_0:  = 0
 Constraint6_28_1:  = 0
 Constraint6_28_2:  = 0
 Constraint6_28_3:  = 0
 Constraint6_29_0:  = 0
 Constraint6_29_1:  = 0
 Constraint6_29_2:  = 0
 Constraint6_29_3:  = 0
 Constraint6_30_0: x(30,40,0) - x(37,30,0)  = 0
 Constraint6_30_1: x(30,40,1) - x(37,30,1)  = 0
 Constraint6_30_2: x(30,40,2) - x(37,30,2)  = 0
 Constraint6_30_3: x(30,40,3) - x(37,30,3)  = 0
 Constraint6_31_0:  = 0
 Constraint6_31_1:  = 0
 Constraint6_31_2:  = 0
 Constraint6_31_3:  = 0
 Constraint6_32_0:  = 0
 Constraint6_32_1:  = 0
 Constraint6_32_2:  = 0
 Constraint6_32_3:  = 0
 Constraint6_33_0:  = 0
 Constraint6_33_1:  = 0
 Constraint6_33_2:  = 0
 Constraint6_33_3:  = 0
 Constraint6_34_0:  = 0
 Constraint6_34_1:  = 0
 Constraint6_34_2:  = 0
 Constraint6_34_3:  = 0
 Constraint6_35_0:  = 0
 Constraint6_35_1:  = 0
 Constraint6_35_2:  = 0
 Constraint6_35_3:  = 0
Bounds
 0 <= x(0,40,0) <= 1
 0 <= x(0,40,1) <= 1
 0 <= x(0,40,2) <= 1
 0 <= x(0,40,3) <= 1
 0 <= x(3,18,0) <= 1
 0 <= x(3,18,1) <= 1
 0 <= x(3,18,2) <= 1
 0 <= x(3,18,3) <= 1
 0 <= x(3,23,0) <= 1
 0 <= x(3,23,1) <= 1
 0 <= x(3,23,2) <= 1
 0 <= x(3,23,3) <= 1
 0 <= x(3,24,0) <= 1
 0 <= x(3,24,1) <= 1
 0 <= x(3,24,2) <= 1
 0 <= x(3,24,3) <= 1
 0 <= x(3,40,0) <= 1
 0 <= x(3,40,1) <= 1
 0 <= x(3,40,2) <= 1
 0 <= x(3,40,3) <= 1
 0 <= x(6,40,0) <= 1
 0 <= x(6,40,1) <= 1
 0 <= x(6,40,2) <= 1
 0 <= x(6,40,3) <= 1
 0 <= x(10,24,0) <= 1
 0 <= x(10,24,1) <= 1
 0 <= x(10,24,2) <= 1
 0 <= x(10,24,3) <= 1
 0 <= x(10,40,0) <= 1
 0 <= x(10,40,1) <= 1
 0 <= x(10,40,2) <= 1
 0 <= x(10,40,3) <= 1
 0 <= x(12,40,0) <= 1
 0 <= x(12,40,1) <= 1
 0 <= x(12,40,2) <= 1
 0 <= x(12,40,3) <= 1
 0 <= x(13,40,0) <= 1
 0 <= x(13,40,1) <= 1
 0 <= x(13,40,2) <= 1
 0 <= x(13,40,3) <= 1
 0 <= x(14,40,0) <= 1
 0 <= x(14,40,1) <= 1
 0 <= x(14,40,2) <= 1
 0 <= x(14,40,3) <= 1
 0 <= x(18,40,0) <= 1
 0 <= x(18,40,1) <= 1
 0 <= x(18,40,2) <= 1
 0 <= x(18,40,3) <= 1
 0 <= x(21,24,0) <= 1
 0 <= x(21,24,1) <= 1
 0 <= x(21,24,2) <= 1
 0 <= x(21,24,3) <= 1
 0 <= x(21,40,0) <= 1
 0 <= x(21,40,1) <= 1
 0 <= x(21,40,2) <= 1
 0 <= x(21,40,3) <= 1
 0 <= x(23,0,0) <= 1
 0 <= x(23,0,1) <= 1
 0 <= x(23,0,2) <= 1
 0 <= x(23,0,3) <= 1
 0 <= x(23,40,0) <= 1
 0 <= x(23,40,1) <= 1
 0 <= x(23,40,2) <= 1
 0 <= x(23,40,3) <= 1
 0 <= x(24,40,0) <= 1
 0 <= x(24,40,1) <= 1
 0 <= x(24,40,2) <= 1
 0 <= x(24,40,3) <= 1
 0 <= x(30,40,0) <= 1
 0 <= x(30,40,1) <= 1
 0 <= x(30,40,2) <= 1
 0 <= x(30,40,3) <= 1
 0 <= x(36,6,0) <= 1
 0 <= x(36,6,1) <= 1
 0 <= x(36,6,2) <= 1
 0 <= x(36,6,3) <= 1
 0 <= x(37,12,0) <= 1
 0 <= x(37,12,1) <= 1
 0 <= x(37,12,2) <= 1
 0 <= x(37,12,3) <= 1
 0 <= x(37,30,0) <= 1
 0 <= x(37,30,1) <= 1
 0 <= x(37,30,2) <= 1
 0 <= x(37,30,3) <= 1
 0 <= x(38,24,0) <= 1
 0 <= x(38,24,1) <= 1
 0 <= x(38,24,2) <= 1
 0 <= x(38,24,3) <= 1
 0 <= x(39,24,0) <= 1
 0 <= x(39,24,1) <= 1
 0 <= x(39,24,2) <= 1
 0 <= x(39,24,3) <= 1
Binaries
 x(0,40,0)  x(0,40,1)  x(0,40,2)  x(0,40,3)  x(3,18,0)  x(3,18,1)  x(3,18,2) 
 x(3,18,3)  x(3,23,0)  x(3,23,1)  x(3,23,2)  x(3,23,3)  x(3,24,0)  x(3,24,1) 
 x(3,24,2)  x(3,24,3)  x(3,40,0)  x(3,40,1)  x(3,40,2)  x(3,40,3)  x(6,40,0) 
 x(6,40,1)  x(6,40,2)  x(6,40,3)  x(10,24,0)  x(10,24,1)  x(10,24,2) 
 x(10,24,3)  x(10,40,0)  x(10,40,1)  x(10,40,2)  x(10,40,3)  x(12,40,0) 
 x(12,40,1)  x(12,40,2)  x(12,40,3)  x(13,40,0)  x(13,40,1)  x(13,40,2) 
 x(13,40,3)  x(14,40,0)  x(14,40,1)  x(14,40,2)  x(14,40,3)  x(18,40,0) 
 x(18,40,1)  x(18,40,2)  x(18,40,3)  x(21,24,0)  x(21,24,1)  x(21,24,2) 
 x(21,24,3)  x(21,40,0)  x(21,40,1)  x(21,40,2)  x(21,40,3)  x(23,0,0) 
 x(23,0,1)  x(23,0,2)  x(23,0,3)  x(23,40,0)  x(23,40,1)  x(23,40,2) 
 x(23,40,3)  x(24,40,0)  x(24,40,1)  x(24,40,2)  x(24,40,3)  x(30,40,0) 
 x(30,40,1)  x(30,40,2)  x(30,40,3)  x(36,6,0)  x(36,6,1)  x(36,6,2) 
 x(36,6,3)  x(37,12,0)  x(37,12,1)  x(37,12,2)  x(37,12,3)  x(37,30,0) 
 x(37,30,1)  x(37,30,2)  x(37,30,3)  x(38,24,0)  x(38,24,1)  x(38,24,2) 
 x(38,24,3)  x(39,24,0)  x(39,24,1)  x(39,24,2)  x(39,24,3) 
End
